c graph converted from Delauney Triangulation format
c weights on edges removed (lost)
x low 0.00
p edge 574 1708
n 0 1.00
n 568 1.00
n 573 1.00
n 567 1.00
n 572 1.00
n 570 1.00
n 1 1.00
n 47 1.00
n 2 1.00
n 565 1.00
n 46 1.00
n 563 1.00
n 3 1.00
n 562 1.00
n 4 1.00
n 45 1.00
n 5 1.00
n 6 1.00
n 7 1.00
n 44 1.00
n 8 1.00
n 561 1.00
n 560 1.00
n 556 1.00
n 557 1.00
n 9 1.00
n 43 1.00
n 42 1.00
n 554 1.00
n 10 1.00
n 37 1.00
n 11 1.00
n 32 1.00
n 34 1.00
n 552 1.00
n 553 1.00
n 12 1.00
n 545 1.00
n 549 1.00
n 13 1.00
n 19 1.00
n 544 1.00
n 528 1.00
n 14 1.00
n 16 1.00
n 529 1.00
n 527 1.00
n 15 1.00
n 221 1.00
n 17 1.00
n 20 1.00
n 18 1.00
n 31 1.00
n 21 1.00
n 26 1.00
n 22 1.00
n 220 1.00
n 219 1.00
n 218 1.00
n 23 1.00
n 217 1.00
n 24 1.00
n 216 1.00
n 25 1.00
n 215 1.00
n 164 1.00
n 27 1.00
n 90 1.00
n 91 1.00
n 30 1.00
n 29 1.00
n 28 1.00
n 87 1.00
n 88 1.00
n 89 1.00
n 35 1.00
n 86 1.00
n 33 1.00
n 36 1.00
n 38 1.00
n 39 1.00
n 40 1.00
n 85 1.00
n 41 1.00
n 79 1.00
n 80 1.00
n 83 1.00
n 55 1.00
n 53 1.00
n 54 1.00
n 51 1.00
n 48 1.00
n 49 1.00
n 50 1.00
n 52 1.00
n 56 1.00
n 57 1.00
n 78 1.00
n 58 1.00
n 60 1.00
n 77 1.00
n 59 1.00
n 76 1.00
n 75 1.00
n 61 1.00
n 63 1.00
n 128 1.00
n 74 1.00
n 71 1.00
n 62 1.00
n 64 1.00
n 67 1.00
n 65 1.00
n 126 1.00
n 127 1.00
n 66 1.00
n 68 1.00
n 125 1.00
n 130 1.00
n 70 1.00
n 69 1.00
n 115 1.00
n 116 1.00
n 124 1.00
n 72 1.00
n 73 1.00
n 114 1.00
n 112 1.00
n 113 1.00
n 81 1.00
n 82 1.00
n 111 1.00
n 84 1.00
n 109 1.00
n 108 1.00
n 106 1.00
n 92 1.00
n 93 1.00
n 163 1.00
n 160 1.00
n 105 1.00
n 94 1.00
n 103 1.00
n 102 1.00
n 158 1.00
n 144 1.00
n 95 1.00
n 101 1.00
n 99 1.00
n 96 1.00
n 138 1.00
n 97 1.00
n 98 1.00
n 123 1.00
n 137 1.00
n 135 1.00
n 122 1.00
n 100 1.00
n 121 1.00
n 110 1.00
n 120 1.00
n 104 1.00
n 107 1.00
n 119 1.00
n 117 1.00
n 118 1.00
n 131 1.00
n 132 1.00
n 133 1.00
n 129 1.00
n 290 1.00
n 298 1.00
n 342 1.00
n 134 1.00
n 140 1.00
n 142 1.00
n 136 1.00
n 139 1.00
n 141 1.00
n 143 1.00
n 150 1.00
n 145 1.00
n 146 1.00
n 147 1.00
n 149 1.00
n 157 1.00
n 148 1.00
n 152 1.00
n 156 1.00
n 151 1.00
n 289 1.00
n 167 1.00
n 168 1.00
n 155 1.00
n 153 1.00
n 166 1.00
n 154 1.00
n 162 1.00
n 159 1.00
n 161 1.00
n 214 1.00
n 165 1.00
n 212 1.00
n 174 1.00
n 172 1.00
n 169 1.00
n 213 1.00
n 170 1.00
n 288 1.00
n 171 1.00
n 173 1.00
n 286 1.00
n 287 1.00
n 175 1.00
n 176 1.00
n 179 1.00
n 284 1.00
n 210 1.00
n 177 1.00
n 178 1.00
n 209 1.00
n 183 1.00
n 182 1.00
n 180 1.00
n 181 1.00
n 187 1.00
n 283 1.00
n 184 1.00
n 208 1.00
n 185 1.00
n 186 1.00
n 237 1.00
n 207 1.00
n 206 1.00
n 188 1.00
n 280 1.00
n 282 1.00
n 195 1.00
n 194 1.00
n 189 1.00
n 190 1.00
n 279 1.00
n 192 1.00
n 193 1.00
n 191 1.00
n 252 1.00
n 258 1.00
n 261 1.00
n 277 1.00
n 196 1.00
n 250 1.00
n 198 1.00
n 249 1.00
n 197 1.00
n 248 1.00
n 199 1.00
n 200 1.00
n 201 1.00
n 202 1.00
n 203 1.00
n 247 1.00
n 245 1.00
n 246 1.00
n 244 1.00
n 243 1.00
n 242 1.00
n 204 1.00
n 239 1.00
n 205 1.00
n 238 1.00
n 234 1.00
n 233 1.00
n 231 1.00
n 232 1.00
n 211 1.00
n 230 1.00
n 229 1.00
n 222 1.00
n 524 1.00
n 223 1.00
n 226 1.00
n 224 1.00
n 523 1.00
n 241 1.00
n 225 1.00
n 240 1.00
n 228 1.00
n 227 1.00
n 235 1.00
n 236 1.00
n 521 1.00
n 522 1.00
n 520 1.00
n 518 1.00
n 517 1.00
n 516 1.00
n 475 1.00
n 251 1.00
n 474 1.00
n 253 1.00
n 257 1.00
n 465 1.00
n 463 1.00
n 254 1.00
n 461 1.00
n 255 1.00
n 256 1.00
n 391 1.00
n 394 1.00
n 395 1.00
n 460 1.00
n 260 1.00
n 390 1.00
n 259 1.00
n 389 1.00
n 262 1.00
n 264 1.00
n 263 1.00
n 275 1.00
n 273 1.00
n 272 1.00
n 265 1.00
n 388 1.00
n 387 1.00
n 386 1.00
n 266 1.00
n 269 1.00
n 270 1.00
n 385 1.00
n 384 1.00
n 267 1.00
n 380 1.00
n 268 1.00
n 378 1.00
n 333 1.00
n 332 1.00
n 328 1.00
n 331 1.00
n 271 1.00
n 322 1.00
n 327 1.00
n 274 1.00
n 321 1.00
n 276 1.00
n 278 1.00
n 316 1.00
n 314 1.00
n 281 1.00
n 313 1.00
n 307 1.00
n 306 1.00
n 308 1.00
n 305 1.00
n 304 1.00
n 285 1.00
n 292 1.00
n 293 1.00
n 295 1.00
n 291 1.00
n 296 1.00
n 294 1.00
n 297 1.00
n 303 1.00
n 302 1.00
n 301 1.00
n 300 1.00
n 299 1.00
n 310 1.00
n 309 1.00
n 318 1.00
n 326 1.00
n 311 1.00
n 312 1.00
n 315 1.00
n 317 1.00
n 319 1.00
n 323 1.00
n 320 1.00
n 324 1.00
n 325 1.00
n 329 1.00
n 330 1.00
n 334 1.00
n 335 1.00
n 336 1.00
n 341 1.00
n 337 1.00
n 339 1.00
n 372 1.00
n 371 1.00
n 338 1.00
n 370 1.00
n 340 1.00
n 343 1.00
n 345 1.00
n 347 1.00
n 438 1.00
n 344 1.00
n 346 1.00
n 368 1.00
n 369 1.00
n 348 1.00
n 367 1.00
n 350 1.00
n 351 1.00
n 354 1.00
n 349 1.00
n 366 1.00
n 363 1.00
n 365 1.00
n 352 1.00
n 353 1.00
n 358 1.00
n 355 1.00
n 359 1.00
n 362 1.00
n 357 1.00
n 356 1.00
n 428 1.00
n 427 1.00
n 425 1.00
n 411 1.00
n 410 1.00
n 360 1.00
n 407 1.00
n 406 1.00
n 361 1.00
n 364 1.00
n 376 1.00
n 375 1.00
n 374 1.00
n 373 1.00
n 377 1.00
n 379 1.00
n 381 1.00
n 382 1.00
n 392 1.00
n 405 1.00
n 383 1.00
n 393 1.00
n 403 1.00
n 402 1.00
n 404 1.00
n 408 1.00
n 397 1.00
n 396 1.00
n 459 1.00
n 401 1.00
n 398 1.00
n 399 1.00
n 448 1.00
n 455 1.00
n 457 1.00
n 400 1.00
n 447 1.00
n 419 1.00
n 418 1.00
n 417 1.00
n 415 1.00
n 414 1.00
n 413 1.00
n 412 1.00
n 409 1.00
n 416 1.00
n 424 1.00
n 420 1.00
n 421 1.00
n 445 1.00
n 446 1.00
n 422 1.00
n 431 1.00
n 423 1.00
n 429 1.00
n 426 1.00
n 435 1.00
n 433 1.00
n 430 1.00
n 432 1.00
n 444 1.00
n 440 1.00
n 434 1.00
n 439 1.00
n 490 1.00
n 436 1.00
n 495 1.00
n 437 1.00
n 452 1.00
n 441 1.00
n 442 1.00
n 443 1.00
n 451 1.00
n 450 1.00
n 449 1.00
n 454 1.00
n 488 1.00
n 453 1.00
n 491 1.00
n 489 1.00
n 487 1.00
n 486 1.00
n 485 1.00
n 468 1.00
n 467 1.00
n 456 1.00
n 458 1.00
n 464 1.00
n 462 1.00
n 466 1.00
n 469 1.00
n 471 1.00
n 470 1.00
n 472 1.00
n 473 1.00
n 483 1.00
n 484 1.00
n 482 1.00
n 481 1.00
n 480 1.00
n 479 1.00
n 477 1.00
n 514 1.00
n 476 1.00
n 513 1.00
n 512 1.00
n 515 1.00
n 478 1.00
n 506 1.00
n 505 1.00
n 496 1.00
n 492 1.00
n 494 1.00
n 493 1.00
n 500 1.00
n 502 1.00
n 503 1.00
n 498 1.00
n 569 1.00
n 497 1.00
n 499 1.00
n 508 1.00
n 507 1.00
n 501 1.00
n 510 1.00
n 504 1.00
n 564 1.00
n 540 1.00
n 542 1.00
n 539 1.00
n 533 1.00
n 509 1.00
n 511 1.00
n 519 1.00
n 525 1.00
n 532 1.00
n 526 1.00
n 531 1.00
n 530 1.00
n 535 1.00
n 534 1.00
n 538 1.00
n 537 1.00
n 536 1.00
n 543 1.00
n 541 1.00
n 559 1.00
n 548 1.00
n 547 1.00
n 546 1.00
n 558 1.00
n 551 1.00
n 550 1.00
n 555 1.00
n 566 1.00
n 571 1.00
e 0 568
e 0 573
e 0 567
e 0 572
e 0 570
e 0 1
e 0 47
e 1 2
e 1 565
e 1 567
e 1 47
e 1 46
e 2 563
e 2 565
e 2 3
e 2 46
e 3 563
e 3 562
e 3 4
e 3 46
e 3 45
e 4 562
e 4 5
e 4 6
e 4 7
e 4 45
e 4 44
e 4 8
e 5 561
e 5 562
e 5 560
e 5 556
e 5 6
e 6 556
e 6 557
e 6 7
e 7 557
e 7 9
e 7 8
e 8 9
e 8 44
e 8 43
e 8 42
e 9 557
e 9 554
e 9 10
e 9 37
e 9 42
e 10 11
e 10 554
e 10 32
e 10 34
e 10 37
e 11 552
e 11 553
e 11 12
e 11 554
e 11 32
e 12 545
e 12 549
e 12 552
e 12 13
e 12 19
e 12 32
e 13 545
e 13 544
e 13 528
e 13 14
e 13 19
e 13 16
e 14 528
e 14 529
e 14 527
e 14 15
e 14 16
e 14 221
e 15 16
e 15 221
e 16 19
e 16 17
e 16 221
e 16 20
e 17 19
e 17 20
e 17 18
e 18 19
e 18 31
e 18 20
e 18 21
e 18 26
e 18 22
e 19 32
e 19 31
e 20 221
e 20 220
e 20 219
e 20 218
e 20 21
e 21 218
e 21 22
e 22 26
e 22 218
e 22 23
e 23 26
e 23 218
e 23 217
e 23 24
e 23 216
e 24 26
e 24 25
e 24 216
e 24 215
e 24 164
e 25 26
e 25 27
e 25 164
e 25 90
e 25 91
e 26 31
e 26 30
e 26 29
e 26 27
e 27 28
e 27 29
e 27 90
e 28 29
e 28 87
e 28 88
e 28 89
e 28 90
e 29 34
e 29 30
e 29 35
e 29 86
e 29 87
e 30 31
e 30 32
e 30 33
e 30 34
e 31 32
e 32 34
e 32 33
e 33 34
e 34 37
e 34 35
e 35 37
e 35 36
e 35 86
e 36 37
e 36 38
e 36 39
e 36 86
e 36 40
e 36 85
e 37 42
e 37 38
e 38 42
e 38 41
e 38 39
e 39 41
e 39 40
e 40 41
e 40 79
e 40 80
e 40 83
e 40 85
e 41 42
e 41 79
e 42 43
e 42 55
e 42 79
e 43 44
e 43 53
e 43 54
e 43 55
e 44 45
e 44 53
e 45 46
e 45 51
e 45 53
e 46 47
e 46 48
e 46 49
e 46 50
e 46 51
e 47 570
e 47 48
e 48 49
e 48 50
e 48 51
e 48 570
e 48 52
e 49 50
e 50 51
e 51 53
e 51 52
e 52 53
e 52 54
e 52 56
e 52 57
e 52 570
e 53 54
e 54 55
e 54 56
e 55 56
e 55 79
e 55 78
e 56 57
e 56 78
e 57 78
e 57 58
e 57 60
e 57 570
e 58 78
e 58 77
e 58 59
e 58 60
e 59 77
e 59 76
e 59 75
e 59 60
e 60 75
e 60 61
e 60 63
e 60 570
e 60 128
e 61 75
e 61 74
e 61 63
e 61 71
e 61 62
e 62 63
e 62 71
e 62 64
e 63 64
e 63 128
e 64 71
e 64 67
e 64 65
e 64 126
e 64 127
e 64 128
e 65 67
e 65 66
e 65 126
e 66 68
e 66 67
e 66 125
e 66 126
e 66 130
e 67 68
e 67 70
e 67 71
e 68 70
e 68 69
e 68 125
e 69 70
e 69 115
e 69 116
e 69 124
e 69 125
e 70 72
e 70 71
e 70 73
e 70 114
e 70 115
e 71 74
e 71 72
e 72 73
e 72 74
e 73 74
e 73 76
e 73 114
e 74 76
e 74 75
e 75 76
e 76 77
e 76 112
e 76 113
e 76 114
e 77 78
e 77 81
e 77 82
e 77 111
e 77 112
e 78 79
e 78 80
e 78 81
e 79 80
e 80 81
e 80 82
e 80 83
e 81 82
e 82 83
e 82 111
e 83 85
e 83 84
e 83 111
e 84 85
e 84 86
e 84 109
e 84 111
e 85 86
e 86 87
e 86 109
e 86 108
e 87 88
e 87 108
e 88 89
e 88 108
e 88 106
e 89 90
e 89 92
e 89 106
e 90 92
e 90 91
e 91 92
e 91 93
e 91 164
e 91 163
e 91 160
e 92 93
e 92 106
e 93 106
e 93 105
e 93 94
e 93 160
e 94 105
e 94 103
e 94 160
e 94 102
e 94 158
e 94 144
e 95 101
e 95 99
e 95 102
e 95 96
e 95 144
e 95 138
e 96 97
e 96 98
e 96 99
e 96 138
e 96 123
e 96 137
e 96 135
e 97 98
e 97 122
e 97 123
e 98 100
e 98 121
e 98 122
e 98 99
e 99 100
e 99 101
e 100 101
e 100 110
e 100 120
e 100 121
e 101 102
e 101 104
e 101 110
e 102 104
e 102 103
e 102 144
e 103 104
e 103 105
e 104 105
e 104 106
e 104 107
e 104 110
e 105 106
e 106 107
e 106 108
e 107 108
e 107 109
e 107 111
e 107 110
e 108 109
e 109 111
e 110 111
e 110 112
e 110 120
e 111 112
e 112 120
e 112 119
e 112 113
e 113 119
e 113 114
e 113 117
e 113 116
e 114 116
e 114 115
e 115 116
e 116 117
e 116 122
e 116 124
e 116 123
e 117 119
e 117 118
e 117 122
e 118 119
e 118 121
e 118 122
e 119 120
e 119 121
e 120 121
e 121 122
e 122 123
e 123 124
e 123 131
e 123 135
e 124 125
e 124 131
e 124 130
e 125 130
e 126 130
e 126 127
e 126 132
e 126 133
e 127 128
e 127 129
e 127 133
e 128 129
e 128 570
e 129 133
e 129 290
e 129 298
e 129 342
e 130 131
e 130 132
e 131 132
e 131 135
e 132 135
e 132 134
e 132 133
e 133 134
e 133 140
e 133 142
e 133 290
e 134 136
e 134 135
e 134 139
e 134 140
e 135 137
e 135 136
e 136 137
e 136 139
e 137 139
e 137 138
e 138 139
e 138 144
e 139 144
e 139 141
e 139 140
e 140 141
e 140 142
e 141 144
e 141 143
e 141 142
e 142 143
e 142 150
e 142 290
e 143 144
e 143 145
e 143 150
e 144 158
e 144 146
e 144 145
e 145 146
e 145 150
e 146 147
e 146 158
e 146 150
e 147 149
e 147 157
e 147 158
e 147 148
e 147 150
e 148 149
e 148 150
e 149 152
e 149 156
e 149 157
e 149 151
e 149 150
e 150 151
e 150 289
e 150 290
e 151 152
e 151 167
e 151 168
e 151 289
e 152 155
e 152 153
e 152 156
e 152 167
e 153 166
e 153 154
e 153 155
e 153 167
e 154 162
e 154 163
e 154 166
e 154 155
e 155 159
e 155 162
e 155 156
e 156 159
e 156 157
e 157 158
e 157 159
e 158 159
e 158 160
e 159 162
e 159 161
e 159 160
e 160 163
e 160 161
e 161 163
e 161 162
e 162 163
e 163 164
e 163 166
e 164 215
e 164 214
e 164 166
e 165 166
e 165 212
e 165 174
e 165 172
e 165 169
e 166 214
e 166 213
e 166 212
e 166 167
e 166 169
e 167 169
e 167 168
e 168 169
e 168 170
e 168 288
e 168 289
e 169 172
e 169 170
e 170 172
e 170 171
e 170 288
e 171 172
e 171 173
e 171 286
e 171 287
e 171 288
e 172 174
e 172 175
e 172 173
e 173 175
e 173 176
e 173 179
e 173 284
e 173 286
e 174 212
e 174 210
e 174 175
e 175 210
e 175 176
e 176 177
e 176 210
e 176 179
e 177 178
e 177 209
e 177 210
e 177 179
e 178 183
e 178 209
e 178 182
e 178 180
e 178 179
e 179 180
e 179 284
e 180 182
e 180 181
e 180 284
e 181 182
e 181 187
e 181 283
e 181 284
e 182 184
e 182 183
e 182 187
e 183 184
e 183 208
e 183 209
e 184 185
e 184 208
e 184 186
e 184 187
e 185 237
e 185 207
e 185 208
e 185 206
e 185 186
e 186 206
e 186 188
e 186 187
e 186 280
e 187 280
e 187 283
e 187 282
e 188 195
e 188 194
e 188 189
e 188 206
e 188 190
e 188 279
e 188 280
e 189 192
e 189 193
e 189 190
e 189 194
e 190 191
e 190 192
e 190 279
e 191 252
e 191 192
e 191 258
e 191 261
e 191 279
e 191 277
e 192 196
e 192 250
e 192 193
e 192 252
e 193 196
e 193 194
e 194 195
e 194 196
e 195 196
e 195 198
e 195 206
e 196 249
e 196 197
e 196 198
e 196 250
e 197 249
e 197 248
e 197 198
e 198 199
e 198 200
e 198 248
e 198 206
e 199 200
e 199 201
e 199 202
e 199 203
e 199 206
e 200 201
e 200 247
e 200 248
e 201 245
e 201 246
e 201 202
e 201 247
e 202 244
e 202 245
e 202 243
e 202 242
e 202 203
e 203 242
e 203 204
e 203 206
e 204 242
e 204 239
e 204 205
e 204 206
e 205 239
e 205 238
e 205 206
e 206 238
e 206 237
e 207 234
e 207 237
e 207 233
e 207 231
e 207 208
e 208 231
e 208 209
e 209 210
e 209 232
e 209 231
e 210 211
e 210 232
e 210 213
e 210 212
e 211 230
e 211 215
e 211 232
e 211 214
e 211 213
e 212 213
e 213 214
e 214 215
e 215 230
e 215 216
e 216 229
e 216 217
e 216 230
e 217 219
e 217 218
e 217 229
e 218 219
e 219 222
e 219 220
e 219 229
e 220 524
e 220 221
e 220 222
e 221 527
e 221 524
e 222 223
e 222 524
e 222 226
e 222 229
e 223 224
e 223 524
e 223 226
e 224 524
e 224 523
e 224 241
e 224 225
e 224 226
e 225 226
e 225 241
e 225 240
e 226 240
e 226 229
e 226 228
e 226 227
e 227 228
e 227 240
e 227 235
e 227 230
e 228 229
e 228 230
e 229 230
e 230 235
e 230 233
e 230 232
e 231 232
e 231 233
e 232 233
e 233 234
e 233 235
e 234 236
e 234 235
e 234 237
e 235 240
e 235 239
e 235 236
e 236 239
e 236 238
e 236 237
e 237 238
e 238 239
e 239 240
e 239 241
e 239 242
e 240 241
e 241 521
e 241 522
e 241 523
e 241 242
e 242 521
e 242 243
e 243 244
e 243 520
e 243 521
e 244 245
e 244 520
e 245 520
e 245 518
e 245 246
e 246 518
e 246 517
e 246 247
e 247 517
e 247 516
e 247 475
e 247 248
e 247 249
e 247 251
e 248 249
e 249 251
e 249 250
e 250 252
e 250 251
e 251 474
e 251 475
e 251 253
e 251 252
e 252 253
e 252 257
e 252 258
e 253 465
e 253 474
e 253 463
e 253 257
e 254 461
e 254 255
e 254 463
e 254 256
e 254 257
e 254 391
e 255 394
e 255 395
e 255 460
e 255 461
e 255 391
e 256 257
e 256 260
e 256 391
e 256 390
e 257 463
e 257 260
e 257 259
e 257 258
e 258 259
e 258 261
e 259 260
e 259 261
e 259 389
e 260 390
e 260 389
e 261 277
e 261 389
e 261 262
e 261 264
e 262 277
e 262 264
e 262 263
e 262 275
e 262 273
e 263 264
e 263 273
e 263 272
e 263 265
e 264 389
e 264 388
e 264 265
e 265 388
e 265 387
e 265 386
e 265 266
e 265 272
e 265 269
e 265 270
e 266 386
e 266 385
e 266 384
e 266 267
e 266 269
e 267 384
e 267 380
e 267 269
e 267 268
e 268 380
e 268 378
e 268 269
e 268 333
e 268 332
e 269 270
e 269 332
e 269 328
e 269 331
e 270 272
e 270 271
e 270 322
e 270 328
e 270 327
e 271 273
e 271 272
e 271 274
e 271 321
e 271 322
e 272 273
e 273 275
e 273 274
e 274 275
e 274 276
e 274 278
e 274 316
e 274 321
e 275 277
e 275 276
e 276 278
e 276 277
e 277 279
e 277 278
e 278 279
e 278 280
e 278 314
e 278 316
e 279 280
e 280 282
e 280 281
e 280 314
e 280 313
e 281 282
e 281 307
e 281 306
e 281 313
e 281 308
e 282 283
e 282 306
e 283 284
e 283 306
e 283 305
e 283 304
e 284 285
e 284 286
e 284 304
e 285 286
e 285 292
e 285 293
e 285 304
e 285 295
e 286 287
e 286 292
e 287 292
e 287 288
e 287 291
e 288 291
e 288 289
e 289 291
e 289 290
e 290 291
e 290 296
e 290 298
e 291 292
e 291 296
e 292 293
e 292 296
e 293 295
e 293 294
e 293 296
e 294 295
e 294 296
e 295 304
e 295 296
e 295 297
e 296 297
e 296 298
e 297 303
e 297 304
e 297 298
e 298 303
e 298 302
e 298 301
e 298 300
e 298 299
e 298 310
e 298 309
e 298 318
e 298 326
e 298 342
e 299 300
e 299 308
e 299 310
e 300 307
e 300 308
e 300 301
e 301 302
e 301 307
e 302 307
e 302 306
e 302 303
e 303 306
e 303 305
e 303 304
e 304 305
e 305 306
e 306 307
e 307 308
e 308 313
e 308 311
e 308 310
e 309 312
e 309 311
e 309 315
e 309 310
e 309 316
e 309 317
e 309 318
e 310 311
e 311 312
e 311 313
e 312 314
e 312 313
e 312 315
e 313 314
e 314 316
e 314 315
e 315 316
e 316 321
e 316 317
e 317 321
e 317 319
e 317 318
e 318 319
e 318 323
e 318 326
e 319 321
e 319 320
e 319 323
e 320 322
e 320 321
e 320 324
e 320 323
e 321 322
e 322 327
e 322 325
e 322 324
e 323 324
e 323 326
e 324 325
e 324 326
e 325 327
e 325 326
e 326 329
e 326 327
e 326 330
e 326 342
e 327 328
e 327 329
e 328 331
e 328 329
e 329 331
e 329 330
e 330 331
e 330 334
e 330 335
e 330 336
e 330 341
e 330 342
e 331 332
e 331 334
e 332 333
e 332 334
e 333 378
e 333 335
e 333 334
e 333 337
e 334 335
e 335 337
e 335 336
e 336 337
e 336 339
e 336 341
e 337 372
e 337 371
e 337 338
e 337 378
e 337 339
e 338 371
e 338 339
e 338 370
e 338 340
e 339 340
e 339 341
e 340 370
e 340 341
e 340 342
e 341 342
e 342 370
e 342 343
e 343 370
e 343 345
e 343 347
e 343 438
e 344 346
e 344 368
e 344 345
e 344 369
e 344 370
e 345 346
e 345 347
e 345 370
e 346 347
e 346 348
e 346 367
e 346 368
e 347 348
e 347 350
e 347 351
e 347 354
e 347 438
e 348 349
e 348 350
e 348 366
e 348 367
e 349 351
e 349 363
e 349 350
e 349 365
e 349 366
e 350 351
e 351 352
e 351 353
e 351 363
e 351 354
e 352 358
e 352 355
e 352 354
e 352 353
e 352 359
e 352 362
e 352 363
e 353 354
e 354 355
e 354 438
e 355 357
e 355 356
e 355 428
e 355 358
e 355 438
e 356 427
e 356 425
e 356 411
e 356 357
e 356 428
e 357 411
e 357 358
e 358 411
e 358 410
e 358 359
e 359 410
e 359 360
e 359 362
e 360 410
e 360 407
e 360 406
e 360 362
e 360 361
e 360 364
e 360 376
e 361 362
e 361 364
e 362 363
e 362 364
e 363 364
e 363 365
e 364 365
e 364 376
e 364 375
e 365 375
e 365 366
e 365 367
e 366 367
e 367 375
e 367 374
e 367 368
e 368 374
e 368 373
e 368 369
e 369 373
e 369 371
e 369 370
e 370 371
e 371 373
e 371 372
e 372 377
e 372 373
e 372 379
e 372 378
e 373 377
e 373 374
e 374 376
e 374 375
e 374 377
e 375 376
e 376 406
e 376 381
e 376 380
e 376 377
e 377 380
e 377 379
e 378 380
e 378 379
e 379 380
e 380 381
e 380 384
e 381 406
e 381 382
e 381 384
e 382 392
e 382 405
e 382 391
e 382 383
e 382 406
e 382 384
e 383 391
e 383 390
e 383 385
e 383 384
e 384 385
e 385 390
e 385 389
e 385 386
e 386 389
e 386 387
e 387 389
e 387 388
e 388 389
e 389 390
e 390 391
e 391 394
e 391 392
e 392 394
e 392 393
e 392 405
e 393 403
e 393 402
e 393 404
e 393 394
e 393 408
e 393 405
e 394 397
e 394 396
e 394 395
e 394 402
e 395 460
e 395 459
e 395 396
e 396 397
e 396 459
e 397 401
e 397 398
e 397 459
e 397 402
e 398 399
e 398 448
e 398 455
e 398 457
e 398 459
e 398 401
e 399 400
e 399 448
e 399 401
e 400 447
e 400 448
e 400 419
e 400 418
e 400 401
e 401 418
e 401 403
e 401 402
e 402 403
e 403 418
e 403 417
e 403 415
e 403 414
e 403 413
e 403 404
e 404 413
e 404 412
e 404 410
e 404 409
e 404 408
e 405 408
e 405 407
e 405 406
e 406 407
e 407 409
e 407 408
e 407 410
e 408 409
e 409 410
e 410 412
e 410 411
e 411 412
e 411 425
e 412 425
e 412 414
e 412 413
e 413 414
e 414 425
e 414 415
e 415 417
e 415 416
e 415 425
e 416 424
e 416 417
e 416 425
e 417 420
e 417 419
e 417 421
e 417 424
e 417 418
e 418 419
e 419 447
e 419 420
e 420 445
e 420 421
e 420 446
e 420 447
e 421 445
e 421 422
e 421 424
e 422 445
e 422 431
e 422 423
e 422 424
e 423 431
e 423 429
e 423 428
e 423 427
e 423 426
e 423 424
e 424 426
e 424 425
e 425 426
e 425 427
e 426 427
e 427 428
e 428 438
e 428 429
e 429 435
e 429 433
e 429 430
e 429 431
e 429 438
e 430 433
e 430 431
e 431 433
e 431 432
e 431 445
e 432 444
e 432 433
e 432 445
e 433 440
e 433 434
e 433 435
e 433 444
e 434 435
e 434 439
e 434 490
e 434 440
e 435 439
e 435 436
e 435 438
e 436 439
e 436 495
e 436 437
e 436 438
e 437 495
e 437 438
e 439 495
e 439 490
e 440 490
e 440 452
e 440 441
e 440 442
e 440 443
e 440 444
e 441 452
e 441 451
e 441 442
e 441 447
e 441 450
e 442 443
e 442 446
e 442 447
e 443 444
e 443 446
e 444 446
e 444 445
e 445 446
e 446 447
e 447 450
e 447 449
e 447 448
e 448 449
e 448 455
e 449 450
e 449 455
e 450 451
e 450 454
e 450 455
e 451 488
e 451 452
e 451 453
e 451 454
e 452 491
e 452 489
e 452 490
e 452 488
e 453 488
e 453 487
e 453 454
e 453 486
e 453 485
e 453 468
e 453 467
e 454 467
e 454 455
e 454 456
e 455 456
e 455 457
e 456 467
e 456 457
e 456 458
e 456 464
e 457 458
e 457 459
e 458 464
e 458 459
e 458 462
e 459 462
e 459 461
e 459 460
e 460 461
e 461 462
e 461 463
e 462 464
e 462 463
e 463 464
e 463 465
e 464 466
e 464 465
e 464 467
e 465 469
e 465 466
e 465 474
e 466 467
e 466 468
e 466 469
e 467 468
e 468 485
e 468 471
e 468 470
e 468 469
e 469 470
e 469 472
e 469 473
e 469 474
e 470 472
e 470 471
e 471 483
e 471 484
e 471 482
e 471 481
e 471 480
e 471 472
e 471 485
e 471 479
e 472 479
e 472 473
e 473 479
e 473 477
e 473 514
e 473 516
e 473 474
e 473 475
e 474 475
e 475 516
e 476 513
e 476 477
e 476 514
e 476 512
e 476 515
e 477 513
e 477 478
e 477 479
e 477 514
e 478 506
e 478 479
e 478 513
e 479 506
e 479 480
e 480 505
e 480 481
e 480 506
e 481 496
e 481 482
e 481 505
e 482 496
e 482 492
e 482 483
e 483 492
e 483 484
e 484 492
e 484 485
e 485 486
e 485 494
e 485 493
e 485 492
e 486 494
e 486 489
e 486 487
e 487 489
e 487 488
e 488 489
e 489 495
e 489 491
e 489 494
e 490 495
e 490 491
e 491 495
e 492 495
e 492 493
e 492 496
e 493 495
e 493 494
e 494 495
e 495 500
e 495 502
e 495 503
e 495 498
e 495 496
e 495 569
e 496 498
e 496 497
e 496 505
e 497 498
e 497 499
e 497 508
e 497 507
e 497 505
e 498 500
e 498 499
e 499 500
e 499 501
e 499 508
e 499 510
e 500 502
e 500 501
e 501 502
e 501 504
e 501 510
e 502 503
e 502 504
e 503 569
e 503 504
e 503 564
e 503 540
e 503 542
e 503 539
e 503 533
e 504 510
e 504 533
e 505 507
e 505 506
e 506 507
e 506 509
e 506 511
e 506 513
e 506 512
e 507 508
e 507 509
e 508 510
e 508 509
e 509 510
e 509 511
e 510 511
e 510 533
e 510 519
e 510 525
e 511 512
e 511 519
e 512 513
e 512 519
e 512 515
e 512 518
e 514 515
e 514 516
e 515 516
e 515 518
e 515 517
e 516 517
e 517 518
e 518 519
e 518 520
e 519 525
e 519 522
e 519 521
e 519 520
e 520 521
e 521 522
e 522 525
e 522 523
e 523 525
e 523 524
e 524 525
e 524 527
e 525 532
e 525 533
e 525 526
e 525 527
e 526 532
e 526 531
e 526 530
e 526 527
e 527 530
e 527 529
e 528 529
e 528 535
e 528 544
e 529 531
e 529 535
e 529 530
e 530 531
e 531 535
e 531 532
e 532 535
e 532 534
e 532 533
e 533 539
e 533 534
e 534 539
e 534 538
e 534 537
e 534 536
e 534 535
e 535 543
e 535 536
e 535 544
e 536 541
e 536 537
e 536 543
e 537 541
e 537 538
e 538 541
e 538 539
e 539 540
e 539 541
e 540 542
e 540 541
e 541 542
e 541 543
e 542 564
e 542 560
e 542 559
e 542 548
e 542 547
e 542 543
e 543 547
e 543 544
e 544 547
e 544 546
e 544 545
e 545 549
e 545 546
e 546 548
e 546 547
e 546 549
e 547 548
e 548 559
e 548 558
e 548 551
e 548 550
e 548 549
e 549 550
e 549 552
e 550 551
e 550 552
e 551 558
e 551 552
e 551 553
e 552 553
e 553 558
e 553 554
e 554 555
e 554 558
e 554 557
e 555 559
e 555 556
e 555 558
e 555 557
e 556 559
e 556 560
e 556 557
e 558 559
e 559 560
e 560 563
e 560 564
e 560 561
e 561 563
e 561 562
e 562 563
e 563 565
e 563 564
e 564 566
e 564 569
e 564 565
e 565 566
e 565 567
e 566 569
e 566 568
e 566 567
e 567 568
e 568 573
e 568 569
e 569 573
e 569 572
e 570 572
e 570 571
e 571 572
e 572 573
